
Welcome to IBM(R) ILOG(R) CPLEX(R) Interactive Optimizer 22.1.1.0
  with Simplex, Mixed Integer & Barrier Optimizers
5725-A06 5725-A29 5724-Y48 5724-Y49 5724-Y54 5724-Y55 5655-Y21
Copyright IBM Corp. 1988, 2022.  All Rights Reserved.

Type 'help' for a list of available commands.
Type 'help' followed by a command name for more
information on commands.

CPLEX> Selected objective sense:  MINIMIZE
Selected objective  name:  00000000
Selected RHS        name:  RHS1
Selected bound      name:  BOUND
Problem 'ee.mps' read.
Read time = 0.03 sec. (3.17 ticks)
CPLEX> New value for time limit in seconds: 7200
CPLEX> New value for parallel optimization mode: -1
CPLEX> New value for default parallel thread count: 40
CPLEX> New value for mixed integer optimality gap tolerance: 1e-13
CPLEX> Version identifier: 22.1.1.0 | 2022-11-28 | 9160aff4d
CPXPARAM_Threads                                 40
CPXPARAM_Parallel                                -1
CPXPARAM_TimeLimit                               7200
CPXPARAM_MIP_Tolerances_MIPGap                   1e-13
Found incumbent of value 0.000000 after 0.00 sec. (0.31 ticks)
Tried aggregator 2 times.
MIP Presolve eliminated 184 rows and 2745 columns.
MIP Presolve modified 6090 coefficients.
Aggregator did 713 substitutions.
Reduced MIP has 3635 rows, 7840 columns, and 28950 nonzeros.
Reduced MIP has 7840 binaries, 0 generals, 0 SOSs, and 0 indicators.
Presolve time = 0.07 sec. (69.13 ticks)
Probing time = 0.03 sec. (5.33 ticks)
Tried aggregator 1 time.
Detecting symmetries...
Reduced MIP has 3635 rows, 7840 columns, and 28950 nonzeros.
Reduced MIP has 7840 binaries, 0 generals, 0 SOSs, and 0 indicators.
Presolve time = 0.02 sec. (22.08 ticks)
Probing time = 0.02 sec. (5.12 ticks)
Clique table members: 18786.
MIP emphasis: balance optimality and feasibility.
MIP search method: dynamic search.
Parallel mode: opportunistic, using up to 40 threads.
Root relaxation solution time = 0.11 sec. (89.65 ticks)

        Nodes                                         Cuts/
   Node  Left     Objective  IInf  Best Integer    Best Bound    ItCnt     Gap

*     0+    0                            0.0000  -1.54000e+13              --- 
*     0+    0                      -4.79000e+12  -1.54000e+13           221.50%
*     0+    0                      -6.00000e+12  -1.54000e+13           156.67%
*     0+    0                      -6.99000e+12  -1.54000e+13           120.31%
*     0+    0                      -7.20000e+12  -1.54000e+13           113.89%
      0     0  -1.53900e+13    92  -7.20000e+12  -1.53900e+13     2083  113.75%
*     0+    0                      -1.08000e+13  -1.53900e+13            42.50%
*     0+    0                      -1.53900e+13  -1.53900e+13             0.00%
      0     0  -1.53900e+13   127  -1.53900e+13      Cuts: 57     2614    0.00%
*     0+    0                      -1.53900e+13  -1.53900e+13             0.00%
      0     0  -1.53900e+13   150  -1.53900e+13      Cuts: 48     3263    0.00%
*     0+    0                      -1.53900e+13  -1.53900e+13             0.00%
*     0+    0                      -1.53900e+13  -1.53900e+13             0.00%
      0     2  -1.53900e+13   150  -1.53900e+13  -1.53900e+13     3263    0.00%
Elapsed time = 2.09 sec. (964.40 ticks, tree = 0.02 MB, solutions = 19)
    134    47  -1.53900e+13   104  -1.53900e+13  -1.53900e+13    14317    0.00%
    501    97        cutoff        -1.53900e+13  -1.53900e+13    30502    0.00%
   1097   475  -1.53900e+13    74  -1.53900e+13  -1.53900e+13   109120    0.00%
   1584   369  -1.53900e+13   150  -1.53900e+13  -1.53900e+13    84503    0.00%
   2059   450  -1.53900e+13    46  -1.53900e+13  -1.53900e+13   102192    0.00%
   2465   866  -1.53900e+13    59  -1.53900e+13  -1.53900e+13   181033    0.00%
   2844  1486  -1.53900e+13   107  -1.53900e+13  -1.53900e+13   338362    0.00%
   3182  1016  -1.53900e+13    91  -1.53900e+13  -1.53900e+13   212032    0.00%
   3424  1430    infeasible        -1.53900e+13  -1.53900e+13   308272    0.00%
   4266  1848    infeasible        -1.53900e+13  -1.53900e+13   511761    0.00%
Elapsed time = 8.07 sec. (4069.92 ticks, tree = 14.07 MB, solutions = 20)
   5213  2008  -1.53900e+13    46  -1.53900e+13  -1.53900e+13   576132    0.00%
   6074  2135  -1.53900e+13   258  -1.53900e+13  -1.53900e+13   630675    0.00%
   6850  2877  -1.53900e+13   210  -1.53900e+13  -1.53900e+13  1099129    0.00%
   7707  2885  -1.53900e+13   104  -1.53900e+13  -1.53900e+13  1106738    0.00%
   8351  3544  -1.53900e+13   218  -1.53900e+13  -1.53900e+13  1580602    0.00%
   8910  3228  -1.53900e+13    92  -1.53900e+13  -1.53900e+13  1377378    0.00%
   9472  3265  -1.53900e+13    69  -1.53900e+13  -1.53900e+13  1410570    0.00%
   9877  3585  -1.53900e+13   205  -1.53900e+13  -1.53900e+13  1628498    0.00%
  10113  3568  -1.53900e+13   375  -1.53900e+13  -1.53900e+13  1598824    0.00%

Performing restart 1

Repeating presolve.
Tried aggregator 2 times.
MIP Presolve eliminated 29 rows and 26 columns.
MIP Presolve modified 1865 coefficients.
Aggregator did 8 substitutions.
Reduced MIP has 3522 rows, 7806 columns, and 28241 nonzeros.
Reduced MIP has 7806 binaries, 0 generals, 0 SOSs, and 0 indicators.
Presolve time = 0.05 sec. (39.84 ticks)
Tried aggregator 2 times.
MIP Presolve eliminated 12 rows and 41 columns.
MIP Presolve modified 28 coefficients.
Aggregator did 15 substitutions.
Reduced MIP has 3495 rows, 7744 columns, and 28015 nonzeros.
Reduced MIP has 7744 binaries, 0 generals, 0 SOSs, and 0 indicators.
Presolve time = 0.05 sec. (54.18 ticks)
Represolve time = 0.23 sec. (144.99 ticks)
  10128     0  -1.53900e+13   320  -1.53900e+13      Cuts: 28  2023082    0.00%
  10128     0  -1.53900e+13   325  -1.53900e+13      Cuts: 35  2023283    0.00%
  10128     0  -1.53900e+13   305  -1.53900e+13      Cuts: 52  2024208    0.00%
  10128     0  -1.53900e+13   352  -1.53900e+13      Cuts: 71  2024875    0.00%
  10128     0  -1.53900e+13   359  -1.53900e+13      Cuts: 47  2025325    0.00%
  10128     0  -1.53900e+13   475  -1.53900e+13      Cuts: 56  2025727    0.00%
  10128     0  -1.53900e+13   355  -1.53900e+13      Cuts: 28  2026216    0.00%
  10128     0  -1.53900e+13   350  -1.53900e+13      Cuts: 44  2026543    0.00%
  10128    26        cutoff        -1.53900e+13  -1.53900e+13  2100557    0.00%
Elapsed time = 28.69 sec. (18089.47 ticks, tree = 0.02 MB, solutions = 20)
  10419    21  -1.53900e+13    98  -1.53900e+13  -1.53900e+13  2210024    0.00%
  10724    11        cutoff        -1.53900e+13  -1.53900e+13  2354647    0.00%
  10889    11  -1.53900e+13   314  -1.53900e+13  -1.53900e+13  2052982    0.00%
  11033    37        cutoff        -1.53900e+13  -1.53900e+13  2291610    0.00%

GUB cover cuts applied:  12
Clique cuts applied:  4
Cover cuts applied:  302
Flow cuts applied:  1
Mixed integer rounding cuts applied:  18
Zero-half cuts applied:  45
Lift and project cuts applied:  6
Gomory fractional cuts applied:  17

Root node processing (before b&c):
  Real time             =    1.25 sec. (950.74 ticks)
Parallel b&c, 40 threads:
  Real time             =   32.98 sec. (21237.23 ticks)
  Sync time (average)   =    7.70 sec.
  Wait time (average)   =    0.19 sec.
                          ------------
Total (root+branch&cut) =   34.23 sec. (22187.98 ticks)

Solution pool: 20 solutions saved.

MIP - Integer optimal solution:  Objective = -1.5389998389e+13
Solution time =   34.37 sec.  Iterations = 2412780  Nodes = 11039
Deterministic time = 22188.01 ticks  (645.54 ticks/sec)

CPLEX> Solution 'p21' written to file 'ee.sol'.
CPLEX> 